161 187 9 136 189 164 32 95 183 192 72 50 114 93 68 143 36 149 174 30 7 111 194 190 96 51 108 4 88 10 166 78 57 134 188 89 54 101 182 142 73 27 37 18 45 184 42 83 91 128 58 20 118 159 132 109 172 38 107 193 80 156 158 121 17 77 138 122 6 29 33 163 131 41 165 120 74 147 49 48 69 40 191 102 71 13 47 127 98 86 145 154 123 12 82 59 65 150 113 15 23 84 31 162 24 140 55 35 66 16 126 25 56 198 92 141 21 94 146 19 1 168 87 63 195 106 171 85 130 115 119 3 135 151 8 144 81 170 67 133 39 14 157 177 26 175 62 53 11 167 97 79 129 117 22 148 155 2 52 60 70 137 28 153 0 185 169 125 76 61 46 34 179 186 64 103 176 5 100 160 124 173 196 75 104 99 197 105 110 180 44 178 43 199 112 90 139 152 116 181 

